qbf_easy_train/easy_611_UNSAT.qdimacs
p cnf 35 99
a 16 13 30 0
e 1 2 3 4 5 6 7 8 9 10 11 12 14 15 17 18 19 20 21 22 23 24 25 26 27 28 29 31 32 33 34 35 0
-1 2 -3 0
1 -2 -3 0
-1 -2 3 0
1 2 3 0
6 4 0
6 5 0
-4 -5 -6 0
-7 6 0
-7 -4 0
-6 4 7 0
7 4 -8 0
-7 -4 -8 0
7 -4 8 0
-7 4 8 0
10 -9 0
10 -5 0
9 5 -10 0
-10 -11 -12 0
10 11 -12 0
-10 11 12 0
10 -11 12 0
13 -10 0
13 12 0
10 -12 -13 0
-8 13 -14 0
8 -13 -14 0
-8 -13 14 0
8 13 14 0
15 -11 0
15 -10 0
11 10 -15 0
-16 9 0
-16 -9 0
-12 -16 -17 0
12 16 -17 0
-12 16 17 0
12 -16 17 0
-18 -15 0
-18 17 0
15 -17 18 0
-19 14 0
-19 18 0
-14 -18 19 0
-6 7 -20 0
6 -7 -20 0
-6 -7 20 0
6 7 20 0
-6 -9 -21 0
6 9 -21 0
-6 9 21 0
6 -9 21 0
7 -21 -22 0
-7 21 -22 0
7 21 22 0
-7 -21 22 0
-23 20 0
-23 -22 0
-20 22 23 0
24 -19 0
24 23 0
19 -23 -24 0
25 4 0
25 -6 0
-4 6 -25 0
-26 -4 0
-26 5 0
4 -5 26 0
-27 25 0
-27 -26 0
-25 26 27 0
-29 28 0
-29 2 0
-28 -2 29 0
-12 30 -31 0
12 -30 -31 0
-12 -30 31 0
12 30 31 0
32 -29 0
32 31 0
29 -31 -32 0
33 -27 0
33 32 0
27 -32 -33 0
34 24 0
34 33 0
-24 -33 -34 0
-35 3 0
-35 34 0
-3 -34 35 0
31 -6 18 0
33 -19 27 -5 0
-4 28 16 10 -9 -3 -35 31 0
-26 -22 -24 2 -7 0
-14 -4 -29 -27 -7 9 23 0
-6 -23 -4 16 2 27 -21 0
4 -5 -27 22 -13 -19 0
-12 -8 19 28 13 20 31 0
-2 -12 8 -11 29 0
35 0
