sat_easy_train/easy_611_UNSAT.dimacs
p cnf 129 435
-3 -1 0
-3 2 0
1 -2 3 0
4 5 -6 0
-4 -5 -6 0
4 -5 6 0
-4 5 6 0
7 6 0
7 6 0
-6 -7 0
10 8 0
10 9 0
-8 -9 -10 0
-11 10 0
-11 -7 0
-10 7 11 0
-12 7 0
-12 11 0
-7 -11 12 0
-14 -2 0
-14 -4 0
2 4 14 0
15 -13 0
15 14 0
13 -14 -15 0
-13 -15 -16 0
13 15 -16 0
-13 15 16 0
13 -15 16 0
-13 -17 -18 0
13 17 -18 0
-13 17 18 0
13 -17 18 0
19 -16 0
19 -18 0
16 18 -19 0
-21 19 0
-21 20 0
-19 -20 21 0
-22 12 0
-22 21 0
-12 -21 22 0
23 3 0
23 -22 0
-3 22 -23 0
-2 -14 -24 0
2 14 -24 0
-2 14 24 0
2 -14 24 0
16 -24 -25 0
-16 24 -25 0
16 24 25 0
-16 -24 25 0
26 -4 0
26 8 0
4 -8 -26 0
-27 -7 0
-27 -26 0
7 26 27 0
28 -25 0
28 27 0
25 -27 -28 0
29 23 0
29 28 0
-23 -28 -29 0
-31 -6 0
-31 -30 0
6 30 31 0
32 -26 0
32 30 0
26 -30 -32 0
-33 1 0
-33 -32 0
-1 32 33 0
34 -33 0
34 25 0
33 -25 -34 0
-34 26 -35 0
34 -26 -35 0
-34 -26 35 0
34 26 35 0
35 -26 -36 0
-35 26 -36 0
35 26 36 0
-35 -26 36 0
-14 8 -37 0
14 -8 -37 0
-14 -8 37 0
14 8 37 0
-38 37 0
-38 -37 0
-39 40 0
39 40 0
40 -25 -41 0
-40 25 -41 0
40 25 41 0
-40 -25 41 0
-42 -38 0
-42 41 0
38 -41 42 0
-42 -8 -43 0
42 8 -43 0
-42 8 43 0
42 -8 43 0
-44 30 0
-44 27 0
-30 -27 44 0
-45 -44 0
-45 -37 0
44 37 45 0
-46 -45 0
-46 -14 0
45 14 46 0
-47 43 0
-47 -46 0
-43 46 47 0
36 47 -48 0
-36 -47 -48 0
36 -47 48 0
-36 47 48 0
-31 -48 -49 0
31 48 -49 0
-31 48 49 0
31 -48 49 0
50 -17 0
50 -32 0
17 32 -50 0
50 -1 -51 0
-50 1 -51 0
50 1 51 0
-50 -1 51 0
-52 30 0
-52 -51 0
-30 51 52 0
-53 -26 0
-53 -52 0
26 52 53 0
-49 -53 -54 0
49 53 -54 0
-49 53 54 0
49 -53 54 0
-9 -13 -55 0
9 13 -55 0
-9 13 55 0
9 -13 55 0
-55 14 -56 0
55 -14 -56 0
-55 -14 56 0
55 14 56 0
-59 -58 0
-59 9 0
58 -9 59 0
-60 -59 0
-60 -35 0
59 35 60 0
-39 24 -61 0
39 -24 -61 0
-39 -24 61 0
39 24 61 0
-60 -61 -62 0
60 61 -62 0
-60 61 62 0
60 -61 62 0
-57 62 -63 0
57 -62 -63 0
-57 -62 63 0
57 62 63 0
64 -19 0
64 2 0
19 -2 -64 0
65 1 0
65 -64 0
-1 64 -65 0
65 -57 -66 0
-65 57 -66 0
65 57 66 0
-65 -57 66 0
-67 -63 0
-67 -66 0
63 66 67 0
-56 -67 -68 0
56 67 -68 0
-56 67 68 0
56 -67 68 0
-54 68 -69 0
54 -68 -69 0
-54 -68 69 0
54 68 69 0
70 -29 0
70 -69 0
29 69 -70 0
-71 4 0
-71 39 0
-4 -39 71 0
-73 -71 0
-73 -72 0
71 72 73 0
-74 27 0
-74 58 0
-27 -58 74 0
75 9 0
75 27 0
-9 -27 -75 0
76 -26 0
76 -1 0
26 1 -76 0
24 -76 -77 0
-24 76 -77 0
24 76 77 0
-24 -76 77 0
-78 -19 0
-78 -77 0
19 77 78 0
79 -26 0
79 17 0
26 -17 -79 0
-78 -79 -80 0
78 79 -80 0
-78 79 80 0
78 -79 80 0
-81 75 0
-81 80 0
-75 -80 81 0
82 -25 0
82 -61 0
25 61 -82 0
57 -83 -84 0
-57 83 -84 0
57 83 84 0
-57 -83 84 0
-85 -82 0
-85 84 0
82 -84 85 0
86 40 0
86 -85 0
-40 85 -86 0
87 84 0
87 -77 0
-84 77 -87 0
86 87 -88 0
-86 -87 -88 0
86 -87 88 0
-86 87 88 0
-9 -35 -89 0
9 35 -89 0
-9 35 89 0
9 -35 89 0
88 -89 -90 0
-88 89 -90 0
88 89 90 0
-88 -89 90 0
-45 77 -91 0
45 -77 -91 0
-45 -77 91 0
45 77 91 0
14 2 -92 0
-14 -2 -92 0
14 -2 92 0
-14 2 92 0
-93 -58 0
-93 -92 0
58 92 93 0
91 93 -94 0
-91 -93 -94 0
91 -93 94 0
-91 93 94 0
95 90 0
95 -94 0
-90 94 -95 0
96 -81 0
96 -95 0
81 95 -96 0
-97 -74 0
-97 -96 0
74 96 97 0
73 -97 -98 0
-73 97 -98 0
73 97 98 0
-73 -97 98 0
99 -9 0
99 43 0
9 -43 -99 0
100 15 0
100 -24 0
-15 24 -100 0
-101 -14 0
-101 46 0
14 -46 101 0
102 100 0
102 101 0
-100 -101 -102 0
-103 38 0
-103 -6 0
-38 6 103 0
14 76 -104 0
-14 -76 -104 0
14 -76 104 0
-14 76 104 0
105 -103 0
105 -104 0
103 104 -105 0
82 -2 -106 0
-82 2 -106 0
82 2 106 0
-82 -2 106 0
-105 106 -107 0
105 -106 -107 0
-105 -106 107 0
105 106 107 0
-108 -102 0
-108 107 0
102 -107 108 0
110 -50 0
110 109 0
50 -109 -110 0
111 -14 0
111 110 0
14 -110 -111 0
112 9 0
112 39 0
-9 -39 -112 0
113 111 0
113 -112 0
-111 112 -113 0
-83 61 -114 0
83 -61 -114 0
-83 -61 114 0
83 61 114 0
115 51 0
115 114 0
-51 -114 -115 0
116 -8 0
116 -44 0
8 44 -116 0
2 -116 -117 0
-2 116 -117 0
2 116 117 0
-2 -116 117 0
118 117 0
118 -58 0
-117 58 -118 0
-119 -109 0
-119 -57 0
109 57 119 0
-119 58 -120 0
119 -58 -120 0
-119 -58 120 0
119 58 120 0
-121 118 0
-121 120 0
-118 -120 121 0
122 -115 0
122 -121 0
115 121 -122 0
-123 -113 0
-123 122 0
113 -122 123 0
-124 -108 0
-124 -123 0
108 123 124 0
99 124 -125 0
-99 -124 -125 0
99 -124 125 0
-99 124 125 0
126 -4 0
126 17 0
4 -17 -126 0
-127 125 0
-127 -126 0
-125 126 127 0
128 98 0
128 -127 0
-98 127 -128 0
70 128 -129 0
-70 -128 -129 0
70 -128 129 0
-70 128 129 0
-100 -3 0
-15 -28 94 -97 2 0
-112 -36 -15 100 60 -59 0
-58 129 0
-56 89 59 -30 62 58 0
-99 -111 119 -8 82 69 0
-52 106 121 102 0
87 -11 125 0
-96 82 0
-80 113 -108 0
-78 59 0
-98 -55 0
-104 -15 0
-41 -24 -48 -80 88 0
117 6 -75 -82 -78 4 0
-20 69 52 -123 0
41 39 -8 125 0
-64 90 111 33 110 -89 0
43 73 7 -101 -89 -83 0
54 -49 -105 -44 -4 16 0
116 -45 -71 0
73 28 -7 114 8 88 0
-63 73 -46 0
-1 -25 0
111 76 94 0
64 38 0
-84 36 0
125 100 -124 0
69 -14 -64 31 0
-68 -49 55 41 3 0
108 -25 0
-82 15 88 67 103 -26 0
128 43 103 10 0
-110 -21 88 -19 0
87 -78 53 22 103 0
-62 107 125 0
-5 -41 0
-23 67 112 -38 102 0
-5 33 -2 72 0
128 98 -65 0
117 34 0
10 57 20 0
-59 99 14 -23 -43 0
-4 -57 -12 0
-28 -1 0
-27 101 91 -86 94 -122 0
91 -96 -30 -123 -114 90 0
-64 -39 0
-4 79 -29 110 -24 0
-29 -123 -24 70 0
-101 39 60 92 0
-19 -87 -108 -86 42 0
91 101 -54 -24 -71 0
-25 19 -49 124 80 0
-93 -37 0
26 -125 120 0
3 -27 33 112 35 -116 0
129 0
